c "331236.clq"
p edge 150 584
e 1 5
e 1 6
e 1 7
e 1 13
e 1 14
e 1 18
e 1 21
e 1 23
e 1 32
e 1 42
e 1 57
e 1 59
e 1 68
e 1 83
e 1 92
e 1 103
e 1 106
e 1 115
e 1 123
e 1 144
e 1 145
e 2 5
e 2 6
e 2 7
e 2 8
e 2 9
e 2 12
e 2 13
e 2 15
e 2 18
e 2 20
e 2 29
e 2 62
e 2 63
e 2 66
e 2 72
e 2 82
e 2 88
e 2 92
e 2 101
e 2 111
e 2 145
e 2 148
e 3 5
e 3 50
e 3 61
e 4 5
e 4 6
e 4 8
e 4 10
e 4 11
e 4 21
e 4 36
e 4 47
e 4 48
e 4 75
e 4 85
e 4 108
e 4 112
e 5 6
e 5 7
e 5 8
e 5 9
e 5 11
e 5 12
e 5 13
e 5 15
e 5 19
e 5 20
e 5 65
e 5 70
e 5 73
e 5 75
e 5 76
e 5 78
e 5 79
e 5 86
e 5 88
e 5 90
e 5 97
e 5 100
e 5 103
e 5 104
e 5 116
e 5 120
e 5 136
e 5 147
e 6 7
e 6 8
e 6 9
e 6 10
e 6 12
e 6 13
e 6 14
e 6 15
e 6 24
e 6 25
e 6 31
e 6 33
e 6 34
e 6 37
e 6 73
e 6 85
e 6 102
e 6 117
e 6 123
e 6 132
e 6 149
e 6 150
e 7 9
e 7 16
e 7 38
e 7 40
e 7 45
e 7 59
e 7 61
e 7 83
e 7 89
e 7 93
e 7 94
e 7 96
e 7 97
e 8 10
e 8 11
e 8 12
e 8 14
e 8 16
e 8 17
e 8 30
e 8 32
e 8 33
e 8 35
e 8 37
e 8 51
e 8 53
e 8 55
e 8 65
e 8 67
e 8 69
e 8 77
e 8 90
e 8 93
e 8 108
e 8 114
e 8 129
e 8 142
e 9 10
e 9 17
e 9 19
e 9 21
e 9 22
e 9 23
e 9 25
e 9 29
e 9 33
e 9 44
e 9 45
e 9 49
e 9 54
e 9 56
e 9 57
e 9 58
e 9 62
e 9 76
e 9 77
e 9 79
e 9 87
e 9 91
e 9 116
e 9 120
e 9 129
e 9 138
e 9 150
e 10 11
e 10 17
e 10 20
e 10 21
e 10 22
e 10 23
e 10 26
e 10 28
e 10 29
e 10 38
e 10 43
e 10 44
e 10 46
e 10 49
e 10 55
e 10 66
e 10 70
e 10 71
e 10 81
e 10 85
e 10 93
e 10 112
e 10 118
e 10 124
e 11 14
e 11 20
e 11 27
e 11 39
e 11 41
e 11 52
e 11 67
e 11 71
e 11 78
e 11 80
e 11 84
e 11 86
e 11 98
e 11 108
e 11 123
e 11 139
e 12 17
e 12 18
e 12 19
e 12 27
e 12 28
e 12 34
e 12 36
e 12 39
e 12 43
e 12 67
e 12 96
e 12 101
e 12 102
e 12 122
e 12 128
e 12 131
e 12 140
e 13 24
e 14 15
e 14 16
e 14 31
e 14 42
e 14 50
e 14 52
e 14 58
e 14 64
e 14 98
e 14 102
e 14 121
e 14 131
e 14 138
e 15 16
e 15 19
e 15 26
e 15 53
e 15 68
e 15 91
e 15 109
e 15 136
e 15 138
e 15 139
e 16 24
e 16 27
e 16 31
e 16 43
e 16 54
e 16 72
e 16 75
e 16 78
e 16 100
e 16 103
e 16 124
e 16 148
e 17 18
e 17 22
e 17 25
e 17 35
e 17 38
e 17 50
e 17 61
e 17 135
e 17 141
e 18 22
e 18 24
e 18 28
e 18 29
e 18 33
e 18 37
e 18 39
e 18 40
e 18 41
e 18 44
e 18 48
e 18 55
e 18 60
e 18 65
e 18 66
e 18 106
e 18 113
e 18 125
e 18 143
e 19 25
e 19 26
e 19 30
e 19 36
e 19 46
e 19 64
e 19 66
e 19 67
e 19 84
e 19 109
e 19 143
e 20 34
e 20 48
e 20 54
e 20 130
e 21 30
e 21 38
e 21 81
e 21 94
e 21 96
e 21 111
e 21 130
e 21 136
e 22 23
e 22 35
e 22 42
e 22 48
e 22 60
e 22 79
e 22 98
e 22 113
e 22 114
e 22 119
e 22 124
e 22 139
e 23 26
e 23 27
e 23 31
e 23 32
e 23 44
e 23 49
e 23 57
e 23 73
e 23 74
e 23 95
e 23 100
e 23 125
e 23 126
e 23 137
e 24 30
e 24 51
e 24 52
e 24 53
e 24 59
e 24 60
e 24 64
e 24 72
e 24 82
e 24 94
e 24 101
e 24 108
e 24 119
e 24 140
e 24 144
e 25 34
e 25 39
e 25 57
e 25 77
e 25 84
e 25 105
e 25 130
e 25 132
e 26 28
e 26 35
e 26 50
e 26 56
e 26 62
e 26 87
e 26 134
e 27 32
e 27 43
e 27 58
e 27 68
e 27 80
e 27 86
e 27 89
e 27 107
e 27 110
e 27 129
e 27 148
e 28 69
e 28 99
e 29 45
e 29 47
e 29 74
e 29 99
e 29 100
e 29 146
e 30 40
e 30 45
e 30 117
e 31 51
e 31 69
e 31 87
e 31 105
e 31 118
e 31 149
e 32 36
e 32 53
e 32 71
e 32 82
e 32 127
e 33 37
e 33 41
e 33 127
e 33 145
e 34 49
e 34 55
e 34 63
e 34 109
e 34 128
e 34 131
e 35 40
e 35 56
e 35 59
e 35 84
e 35 141
e 36 42
e 36 54
e 36 77
e 36 78
e 36 95
e 36 127
e 36 147
e 37 80
e 37 92
e 37 97
e 37 99
e 37 130
e 37 135
e 38 56
e 38 58
e 38 79
e 38 95
e 38 115
e 38 125
e 38 141
e 39 46
e 39 60
e 39 72
e 39 141
e 40 41
e 40 63
e 40 88
e 40 126
e 41 73
e 41 80
e 41 110
e 42 47
e 42 64
e 42 70
e 42 90
e 42 113
e 42 135
e 43 89
e 43 116
e 44 83
e 44 91
e 45 46
e 45 47
e 45 92
e 45 125
e 45 132
e 45 133
e 46 74
e 46 89
e 46 132
e 46 133
e 47 52
e 47 85
e 47 109
e 47 134
e 49 51
e 49 122
e 50 87
e 50 93
e 50 96
e 50 145
e 51 63
e 51 81
e 52 62
e 52 65
e 52 97
e 52 103
e 52 104
e 52 121
e 52 134
e 54 137
e 54 146
e 55 76
e 55 114
e 55 120
e 55 128
e 55 129
e 55 146
e 56 61
e 56 68
e 56 88
e 56 90
e 56 106
e 56 112
e 57 122
e 58 69
e 58 107
e 59 86
e 62 75
e 62 128
e 63 74
e 63 139
e 64 71
e 64 101
e 64 104
e 64 133
e 64 134
e 64 150
e 65 70
e 65 133
e 68 98
e 68 104
e 68 118
e 69 118
e 70 81
e 70 120
e 70 150
e 71 76
e 72 119
e 74 83
e 74 106
e 74 111
e 75 82
e 75 114
e 76 131
e 77 91
e 78 136
e 79 110
e 79 122
e 80 126
e 80 143
e 82 112
e 83 121
e 84 105
e 84 119
e 85 107
e 86 99
e 87 102
e 88 113
e 88 115
e 89 116
e 90 95
e 90 140
e 90 147
e 91 94
e 93 117
e 93 149
e 94 146
e 96 138
e 97 105
e 98 110
e 99 124
e 99 137
e 99 142
e 101 107
e 106 135
e 106 144
e 108 111
e 108 137
e 108 140
e 109 142
e 110 117
e 114 115
e 114 121
e 115 123
e 116 126
e 116 142
e 118 127
e 125 149
e 127 143
e 127 148
e 135 147
e 141 144
